benchmarks_vrp/CMT2/min_c/CMT2_9.vrp
NAME: CMT2_9
TYPE: CVRP
COMMENT: 835.26 - Cluster Nr.9
DIMENSION: 9
CAPACITY: 140
EDGE_WEIGHT_TYPE: EUC_2D
NODE_COORD_TYPE: TWOD_COORDS
NODE_COORD_SECTION: 
4 35 51
2 41 46
5 40 66
8 30 60
1 40 40
9 50 70
3 47 66
7 35 60
6 40 60
DEPOT_SECTION: 
1
-1
DEMAND_SECTION: 
4 16
2 18
3 24
7 1
5 26
8 16
1 0
6 21
9 9
EOF
