benchmarks_vrp/CMT2/min_c/CMT2_9.tour
NAME: CMT2_9 solution
TYPE: TOUR
TOUR_SECTION:
1 2 6 3 9 5 7 8 4 -1
-1
EOF